50

98 8 258
97 28 543
96 17 248
95 24 563
95 8 538
94 23 401
93 17 435
93 24 435
93 18 683
93 17 702
91 27 347
90 22 351
87 12 242
87 11 630
80 20 341
80 17 385
80 12 493
77 11 605
72 1 695
71 20 419
68 3 516
68 10 695
67 4 667
64 8 635
63 13 724
62 3 342
60 3 562
60 3 634
60 13 546
57 10 419
57 6 434
56 6 253
54 14 706
53 2 388
53 3 688
52 5 495
49 13 254
47 15 583
45 14 581
43 3 350
41 13 638
41 6 316
39 3 667
38 12 373
38 9 355
37 5 444
37 1 670
36 8 276
35 9 279
31 5 738
